6837
6885
6795
6837
6721
6897
6759
6827
6755
6821
6827
6748
6774
6827
6795
6769
6818
6772
6927
6716
6918
6806
6870
6876
6803
6762
6840
6785
6819
6917
6811
6817
6833
6786
6764
6819
6855
6911
6739
6750
6905
6900
6811
6701
6757
6767
6827
6794
6895
6824
6863
6826
6795
6862
6749
6713
6842
6830
6794
6900
6891
6768
6775
6743
6841
6746
6776
6818
6824
6774
6941
6841
6798
6876
6820
6822
6847
6696
6838
6857
6741
6813
6874
6851
6812
6863
6830
6808
6851
6889
6677
6791
6800
6870
6819
6769
6702
6961
6906
6787
